p edge 30 50 5
v 5 5 6 20 23 24
v 6 8 9 14 17 18 29
v 2 12 26
v 7 2 4 7 15 16 28 30
v 10 1 3 10 11 13 19 21 22 25 27
e 1 22
e 2 3
e 2 10
e 2 21
e 3 10
e 3 15
e 3 16
e 3 29
e 3 30
e 4 27
e 5 8
e 5 10
e 5 14
e 5 20
e 5 27
e 6 21
e 6 22
e 7 13
e 7 28
e 8 20
e 9 15
e 9 28
e 9 30
e 10 11
e 10 17
e 10 24
e 10 26
e 10 27
e 11 26
e 12 15
e 12 20
e 12 26
e 12 28
e 12 29
e 13 19
e 13 24
e 14 16
e 14 24
e 15 23
e 15 28
e 16 22
e 17 20
e 17 23
e 17 30
e 19 22
e 22 23
e 23 27
e 24 29
e 26 30
e 28 30
